SCIP version 5.0.0 [precision: 8 byte] [memory: block] [mode: optimized] [LP solver: NONE] [GitHash: 3bbd232]
Copyright (C) 2002-2017 Konrad-Zuse-Zentrum fuer Informationstechnik Berlin (ZIB)

External codes: 
  Readline EditLine w  GNU library for command line editing (gnu.org/s/readline)
  CppAD 20160000.1     Algorithmic Differentiation of C++ algorithms developed by B. Bell (www.coin-or.org/CppAD)
  ZLIB 1.2.5           General purpose compression library by J. Gailly and M. Adler (zlib.net)
  GMP 6.1.2            GNU Multiple Precision Arithmetic Library developed by T. Granlund (gmplib.org)

user parameter file <scip.set> not found - using default parameters

read problem <../../Split_data/output/spectf/1/0_sample_spectf.logreg>
============

File name	:	../../Split_data/output/spectf/1/0_sample_spectf.logreg
Problem name 	:	0_sample_spectf
Number of data	:	213
Number of var	:	44
The given data has linear independence

[dim=1] time: 0.007996
[dim=2] time: 0.016087
[dim=3] time: 0.024032
[dim=4] time: 0.03078
[dim=5] time: 0.037048
[dim=6] time: 0.043263
[dim=7] time: 0.049787
[dim=8] time: 0.055629
[dim=9] time: 0.061622
[dim=10] Time of forward = 0.067465sec.
AIC: 139.043
k: 9

[dim=44] time: 0.030311
[dim=43] time: 0.048637
[dim=42] time: 0.066427
[dim=41] time: 0.083798
[dim=40] time: 0.097918
[dim=39] time: 0.111187
[dim=38] time: 0.125284
[dim=37] time: 0.139412
[dim=36] time: 0.152585
[dim=35] time: 0.165467
[dim=34] time: 0.177271
[dim=33] time: 0.18766
[dim=32] time: 0.197088
[dim=31] time: 0.208722
[dim=30] time: 0.217618
[dim=29] time: 0.230926
[dim=28] time: 0.244384
[dim=27] time: 0.253613
[dim=26] time: 0.262406
[dim=25] time: 0.270174
[dim=24] time: 0.277525
[dim=23] time: 0.286118
[dim=22] time: 0.294108
[dim=21] time: 0.299899
[dim=20] time: 0.306426
[dim=19] time: 0.312088
[dim=18] time: 0.317556
[dim=17] time: 0.322737
[dim=16] time: 0.32657
[dim=15] time: 0.331005
[dim=14] time: 0.33453
[dim=13] time: 0.338218
[dim=12] Time of backward = 0.341465sec.
AIC: 136.514
k: 13
